(set-logic HORN)
(declare-fun invariant (Real Real Real Real Real Real Real Real Real Real Real Real Real Real Real Real Real Real Real Real Real Real Real Real Real Real Real Real Real Real Real Real Real Real Real Real Real Real Real Real Real Real Bool Bool Bool Bool Bool Bool Bool Bool Bool Bool Real Real Real Real Real Real) Bool)

;; Initial state
(assert
  (forall ((state.cx!0!0 Real) (state.cx!0!1 Real) (state.cx!0!2 Real) (state.cx!0!3 Real) (state.cx!0!4 Real) (state.cx!0!5 Real) (state.cx!0!6 Real) (state.cx!1!0 Real) (state.cx!1!1 Real) (state.cx!1!2 Real) (state.cx!1!3 Real) (state.cx!1!4 Real) (state.cx!1!5 Real) (state.cx!1!6 Real) (state.cx!2!0 Real) (state.cx!2!1 Real) (state.cx!2!2 Real) (state.cx!2!3 Real) (state.cx!2!4 Real) (state.cx!2!5 Real) (state.cx!2!6 Real) (state.cy!0!0 Real) (state.cy!0!1 Real) (state.cy!0!2 Real) (state.cy!0!3 Real) (state.cy!0!4 Real) (state.cy!0!5 Real) (state.cy!0!6 Real) (state.cy!1!0 Real) (state.cy!1!1 Real) (state.cy!1!2 Real) (state.cy!1!3 Real) (state.cy!1!4 Real) (state.cy!1!5 Real) (state.cy!1!6 Real) (state.cy!2!0 Real) (state.cy!2!1 Real) (state.cy!2!2 Real) (state.cy!2!3 Real) (state.cy!2!4 Real) (state.cy!2!5 Real) (state.cy!2!6 Real) (state.good_p!0 Bool) (state.good_p!1 Bool) (state.good_p!2 Bool) (state.good_r!0 Bool) (state.good_r!1 Bool) (state.good_r!2 Bool) (state.good_r!3 Bool) (state.good_r!4 Bool) (state.good_r!5 Bool) (state.good_r!6 Bool) (state.v!0 Real) (state.v!1 Real) (state.v!2 Real) (state.round Real) (state.source Real) (state.val Real))
    (=> (let ((l0 (= |state.round| 0))) (let ((l1 (= |state.cx!0!0| 0))) (let ((l2 (= |state.cx!0!1| 0))) (let ((l3 (= |state.cx!0!2| 0))) (let ((l4 (= |state.cx!0!3| 0))) (let ((l5 (= |state.cx!0!4| 0))) (let ((l6 (= |state.cx!0!5| 0))) (let ((l7 (= |state.cx!0!6| 0))) (let ((l8 (= |state.cx!1!0| 0))) (let ((l9 (= |state.cx!1!1| 0))) (let ((l10 (= |state.cx!1!2| 0))) (let ((l11 (= |state.cx!1!3| 0))) (let ((l12 (= |state.cx!1!4| 0))) (let ((l13 (= |state.cx!1!5| 0))) (let ((l14 (= |state.cx!1!6| 0))) (let ((l15 (= |state.cx!2!0| 0))) (let ((l16 (= |state.cx!2!1| 0))) (let ((l17 (= |state.cx!2!2| 0))) (let ((l18 (= |state.cx!2!3| 0))) (let ((l19 (= |state.cx!2!4| 0))) (let ((l20 (= |state.cx!2!5| 0))) (let ((l21 (= |state.cx!2!6| 0))) (let ((l22 (= |state.cy!0!0| 0))) (let ((l23 (= |state.cy!0!1| 0))) (let ((l24 (= |state.cy!0!2| 0))) (let ((l25 (= |state.cy!0!3| 0))) (let ((l26 (= |state.cy!0!4| 0))) (let ((l27 (= |state.cy!0!5| 0))) (let ((l28 (= |state.cy!0!6| 0))) (let ((l29 (= |state.cy!1!0| 0))) (let ((l30 (= |state.cy!1!1| 0))) (let ((l31 (= |state.cy!1!2| 0))) (let ((l32 (= |state.cy!1!3| 0))) (let ((l33 (= |state.cy!1!4| 0))) (let ((l34 (= |state.cy!1!5| 0))) (let ((l35 (= |state.cy!1!6| 0))) (let ((l36 (= |state.cy!2!0| 0))) (let ((l37 (= |state.cy!2!1| 0))) (let ((l38 (= |state.cy!2!2| 0))) (let ((l39 (= |state.cy!2!3| 0))) (let ((l40 (= |state.cy!2!4| 0))) (let ((l41 (= |state.cy!2!5| 0))) (let ((l42 (= |state.cy!2!6| 0))) (let ((l43 (= |state.source| 1))) (let ((l44 (= |state.source| 2))) (let ((l45 (= |state.source| 3))) (let ((l46 (or l43 l44 l45))) (let ((l47 (= |state.val| 0))) (let ((l48 (not l47))) (let ((l49 (and |state.good_p!0| |state.good_p!1| |state.good_p!2|))) (let ((l50 (not |state.good_r!0|))) (let ((l51 (and l50 |state.good_r!1| |state.good_r!2| |state.good_r!3| |state.good_r!4| |state.good_r!5| |state.good_r!6|))) (let ((l52 (not |state.good_r!1|))) (let ((l53 (and l52 |state.good_r!0| |state.good_r!2| |state.good_r!3| |state.good_r!4| |state.good_r!5| |state.good_r!6|))) (let ((l54 (not |state.good_r!2|))) (let ((l55 (and l54 |state.good_r!0| |state.good_r!1| |state.good_r!3| |state.good_r!4| |state.good_r!5| |state.good_r!6|))) (let ((l56 (not |state.good_r!3|))) (let ((l57 (and l56 |state.good_r!0| |state.good_r!1| |state.good_r!2| |state.good_r!4| |state.good_r!5| |state.good_r!6|))) (let ((l58 (not |state.good_r!4|))) (let ((l59 (and l58 |state.good_r!0| |state.good_r!1| |state.good_r!2| |state.good_r!3| |state.good_r!5| |state.good_r!6|))) (let ((l60 (not |state.good_r!5|))) (let ((l61 (and l60 |state.good_r!0| |state.good_r!1| |state.good_r!2| |state.good_r!3| |state.good_r!4| |state.good_r!6|))) (let ((l62 (not |state.good_r!6|))) (let ((l63 (and l62 |state.good_r!0| |state.good_r!1| |state.good_r!2| |state.good_r!3| |state.good_r!4| |state.good_r!5|))) (let ((l64 (or l51 l53 l55 l57 l59 l61 l63))) (let ((l65 (and l0 l1 l2 l3 l4 l5 l6 l7 l8 l9 l10 l11 l12 l13 l14 l15 l16 l17 l18 l19 l20 l21 l22 l23 l24 l25 l26 l27 l28 l29 l30 l31 l32 l33 l34 l35 l36 l37 l38 l39 l40 l41 l42 l46 l48 l49 l64))) l65))))))))))))))))))))))))))))))))))))))))))))))))))))))))))))))))))
        (invariant state.cx!0!0 state.cx!0!1 state.cx!0!2 state.cx!0!3 state.cx!0!4 state.cx!0!5 state.cx!0!6 state.cx!1!0 state.cx!1!1 state.cx!1!2 state.cx!1!3 state.cx!1!4 state.cx!1!5 state.cx!1!6 state.cx!2!0 state.cx!2!1 state.cx!2!2 state.cx!2!3 state.cx!2!4 state.cx!2!5 state.cx!2!6 state.cy!0!0 state.cy!0!1 state.cy!0!2 state.cy!0!3 state.cy!0!4 state.cy!0!5 state.cy!0!6 state.cy!1!0 state.cy!1!1 state.cy!1!2 state.cy!1!3 state.cy!1!4 state.cy!1!5 state.cy!1!6 state.cy!2!0 state.cy!2!1 state.cy!2!2 state.cy!2!3 state.cy!2!4 state.cy!2!5 state.cy!2!6 state.good_p!0 state.good_p!1 state.good_p!2 state.good_r!0 state.good_r!1 state.good_r!2 state.good_r!3 state.good_r!4 state.good_r!5 state.good_r!6 state.v!0 state.v!1 state.v!2 state.round state.source state.val))
  )
)

;; Transition relation
(assert
  (forall ((state.cx!0!0 Real) (next.cx!0!0 Real) (state.cx!0!1 Real) (next.cx!0!1 Real) (state.cx!0!2 Real) (next.cx!0!2 Real) (state.cx!0!3 Real) (next.cx!0!3 Real) (state.cx!0!4 Real) (next.cx!0!4 Real) (state.cx!0!5 Real) (next.cx!0!5 Real) (state.cx!0!6 Real) (next.cx!0!6 Real) (state.cx!1!0 Real) (next.cx!1!0 Real) (state.cx!1!1 Real) (next.cx!1!1 Real) (state.cx!1!2 Real) (next.cx!1!2 Real) (state.cx!1!3 Real) (next.cx!1!3 Real) (state.cx!1!4 Real) (next.cx!1!4 Real) (state.cx!1!5 Real) (next.cx!1!5 Real) (state.cx!1!6 Real) (next.cx!1!6 Real) (state.cx!2!0 Real) (next.cx!2!0 Real) (state.cx!2!1 Real) (next.cx!2!1 Real) (state.cx!2!2 Real) (next.cx!2!2 Real) (state.cx!2!3 Real) (next.cx!2!3 Real) (state.cx!2!4 Real) (next.cx!2!4 Real) (state.cx!2!5 Real) (next.cx!2!5 Real) (state.cx!2!6 Real) (next.cx!2!6 Real) (state.cy!0!0 Real) (next.cy!0!0 Real) (state.cy!0!1 Real) (next.cy!0!1 Real) (state.cy!0!2 Real) (next.cy!0!2 Real) (state.cy!0!3 Real) (next.cy!0!3 Real) (state.cy!0!4 Real) (next.cy!0!4 Real) (state.cy!0!5 Real) (next.cy!0!5 Real) (state.cy!0!6 Real) (next.cy!0!6 Real) (state.cy!1!0 Real) (next.cy!1!0 Real) (state.cy!1!1 Real) (next.cy!1!1 Real) (state.cy!1!2 Real) (next.cy!1!2 Real) (state.cy!1!3 Real) (next.cy!1!3 Real) (state.cy!1!4 Real) (next.cy!1!4 Real) (state.cy!1!5 Real) (next.cy!1!5 Real) (state.cy!1!6 Real) (next.cy!1!6 Real) (state.cy!2!0 Real) (next.cy!2!0 Real) (state.cy!2!1 Real) (next.cy!2!1 Real) (state.cy!2!2 Real) (next.cy!2!2 Real) (state.cy!2!3 Real) (next.cy!2!3 Real) (state.cy!2!4 Real) (next.cy!2!4 Real) (state.cy!2!5 Real) (next.cy!2!5 Real) (state.cy!2!6 Real) (next.cy!2!6 Real) (state.good_p!0 Bool) (next.good_p!0 Bool) (state.good_p!1 Bool) (next.good_p!1 Bool) (state.good_p!2 Bool) (next.good_p!2 Bool) (state.good_r!0 Bool) (next.good_r!0 Bool) (state.good_r!1 Bool) (next.good_r!1 Bool) (state.good_r!2 Bool) (next.good_r!2 Bool) (state.good_r!3 Bool) (next.good_r!3 Bool) (state.good_r!4 Bool) (next.good_r!4 Bool) (state.good_r!5 Bool) (next.good_r!5 Bool) (state.good_r!6 Bool) (next.good_r!6 Bool) (state.v!0 Real) (next.v!0 Real) (state.v!1 Real) (next.v!1 Real) (state.v!2 Real) (next.v!2 Real) (state.round Real) (next.round Real) (state.source Real) (next.source Real) (state.val Real) (next.val Real))
    (=> (and (invariant state.cx!0!0 state.cx!0!1 state.cx!0!2 state.cx!0!3 state.cx!0!4 state.cx!0!5 state.cx!0!6 state.cx!1!0 state.cx!1!1 state.cx!1!2 state.cx!1!3 state.cx!1!4 state.cx!1!5 state.cx!1!6 state.cx!2!0 state.cx!2!1 state.cx!2!2 state.cx!2!3 state.cx!2!4 state.cx!2!5 state.cx!2!6 state.cy!0!0 state.cy!0!1 state.cy!0!2 state.cy!0!3 state.cy!0!4 state.cy!0!5 state.cy!0!6 state.cy!1!0 state.cy!1!1 state.cy!1!2 state.cy!1!3 state.cy!1!4 state.cy!1!5 state.cy!1!6 state.cy!2!0 state.cy!2!1 state.cy!2!2 state.cy!2!3 state.cy!2!4 state.cy!2!5 state.cy!2!6 state.good_p!0 state.good_p!1 state.good_p!2 state.good_r!0 state.good_r!1 state.good_r!2 state.good_r!3 state.good_r!4 state.good_r!5 state.good_r!6 state.v!0 state.v!1 state.v!2 state.round state.source state.val)
             (let ((l0 (= |next.source| |state.source|))) (let ((l1 (= |next.val| |state.val|))) (let ((l2 (= |state.round| 0))) (let ((l3 (not |state.good_p!0|))) (let ((l4 (= 1 |state.source|))) (let ((l5 (not l4))) (let ((l6 (= |next.cx!0!0| |state.val|))) (let ((l7 (= |next.cx!0!1| |state.val|))) (let ((l8 (= |next.cx!0!2| |state.val|))) (let ((l9 (= |next.cx!0!3| |state.val|))) (let ((l10 (= |next.cx!0!4| |state.val|))) (let ((l11 (= |next.cx!0!5| |state.val|))) (let ((l12 (= |next.cx!0!6| |state.val|))) (let ((l13 (and l6 l7 l8 l9 l10 l11 l12))) (let ((l14 (or l3 l5 l13))) (let ((l15 (not |state.good_p!1|))) (let ((l16 (= 2 |state.source|))) (let ((l17 (not l16))) (let ((l18 (= |next.cx!1!0| |state.val|))) (let ((l19 (= |next.cx!1!1| |state.val|))) (let ((l20 (= |next.cx!1!2| |state.val|))) (let ((l21 (= |next.cx!1!3| |state.val|))) (let ((l22 (= |next.cx!1!4| |state.val|))) (let ((l23 (= |next.cx!1!5| |state.val|))) (let ((l24 (= |next.cx!1!6| |state.val|))) (let ((l25 (and l18 l19 l20 l21 l22 l23 l24))) (let ((l26 (or l15 l17 l25))) (let ((l27 (not |state.good_p!2|))) (let ((l28 (= 3 |state.source|))) (let ((l29 (not l28))) (let ((l30 (= |next.cx!2!0| |state.val|))) (let ((l31 (= |next.cx!2!1| |state.val|))) (let ((l32 (= |next.cx!2!2| |state.val|))) (let ((l33 (= |next.cx!2!3| |state.val|))) (let ((l34 (= |next.cx!2!4| |state.val|))) (let ((l35 (= |next.cx!2!5| |state.val|))) (let ((l36 (= |next.cx!2!6| |state.val|))) (let ((l37 (and l30 l31 l32 l33 l34 l35 l36))) (let ((l38 (or l27 l29 l37))) (let ((l39 (= |next.cx!0!0| 0))) (let ((l40 (= |next.cx!0!1| 0))) (let ((l41 (= |next.cx!0!2| 0))) (let ((l42 (= |next.cx!0!3| 0))) (let ((l43 (= |next.cx!0!4| 0))) (let ((l44 (= |next.cx!0!5| 0))) (let ((l45 (= |next.cx!0!6| 0))) (let ((l46 (and l39 l40 l41 l42 l43 l44 l45))) (let ((l47 (or l3 l4 l46))) (let ((l48 (= |next.cx!1!0| 0))) (let ((l49 (= |next.cx!1!1| 0))) (let ((l50 (= |next.cx!1!2| 0))) (let ((l51 (= |next.cx!1!3| 0))) (let ((l52 (= |next.cx!1!4| 0))) (let ((l53 (= |next.cx!1!5| 0))) (let ((l54 (= |next.cx!1!6| 0))) (let ((l55 (and l48 l49 l50 l51 l52 l53 l54))) (let ((l56 (or l15 l16 l55))) (let ((l57 (= |next.cx!2!0| 0))) (let ((l58 (= |next.cx!2!1| 0))) (let ((l59 (= |next.cx!2!2| 0))) (let ((l60 (= |next.cx!2!3| 0))) (let ((l61 (= |next.cx!2!4| 0))) (let ((l62 (= |next.cx!2!5| 0))) (let ((l63 (= |next.cx!2!6| 0))) (let ((l64 (and l57 l58 l59 l60 l61 l62 l63))) (let ((l65 (or l27 l28 l64))) (let ((l66 (and l14 l26 l38 l47 l56 l65))) (let ((l67 (= |next.round| 1))) (let ((l68 (= |next.cy!0!0| |state.cy!0!0|))) (let ((l69 (= |next.cy!0!1| |state.cy!0!1|))) (let ((l70 (= |next.cy!0!2| |state.cy!0!2|))) (let ((l71 (= |next.cy!0!3| |state.cy!0!3|))) (let ((l72 (= |next.cy!0!4| |state.cy!0!4|))) (let ((l73 (= |next.cy!0!5| |state.cy!0!5|))) (let ((l74 (= |next.cy!0!6| |state.cy!0!6|))) (let ((l75 (= |next.cy!1!0| |state.cy!1!0|))) (let ((l76 (= |next.cy!1!1| |state.cy!1!1|))) (let ((l77 (= |next.cy!1!2| |state.cy!1!2|))) (let ((l78 (= |next.cy!1!3| |state.cy!1!3|))) (let ((l79 (= |next.cy!1!4| |state.cy!1!4|))) (let ((l80 (= |next.cy!1!5| |state.cy!1!5|))) (let ((l81 (= |next.cy!1!6| |state.cy!1!6|))) (let ((l82 (= |next.cy!2!0| |state.cy!2!0|))) (let ((l83 (= |next.cy!2!1| |state.cy!2!1|))) (let ((l84 (= |next.cy!2!2| |state.cy!2!2|))) (let ((l85 (= |next.cy!2!3| |state.cy!2!3|))) (let ((l86 (= |next.cy!2!4| |state.cy!2!4|))) (let ((l87 (= |next.cy!2!5| |state.cy!2!5|))) (let ((l88 (= |next.cy!2!6| |state.cy!2!6|))) (let ((l89 (and l68 l69 l70 l71 l72 l73 l74 l75 l76 l77 l78 l79 l80 l81 l82 l83 l84 l85 l86 l87 l88))) (let ((l90 (= |next.good_p!0| |state.good_p!0|))) (let ((l91 (= |next.good_p!1| |state.good_p!1|))) (let ((l92 (= |next.good_p!2| |state.good_p!2|))) (let ((l93 (and l90 l91 l92))) (let ((l94 (= |next.good_r!0| |state.good_r!0|))) (let ((l95 (= |next.good_r!1| |state.good_r!1|))) (let ((l96 (= |next.good_r!2| |state.good_r!2|))) (let ((l97 (= |next.good_r!3| |state.good_r!3|))) (let ((l98 (= |next.good_r!4| |state.good_r!4|))) (let ((l99 (= |next.good_r!5| |state.good_r!5|))) (let ((l100 (= |next.good_r!6| |state.good_r!6|))) (let ((l101 (and l94 l95 l96 l97 l98 l99 l100))) (let ((l102 (= |next.v!0| |state.v!0|))) (let ((l103 (= |next.v!1| |state.v!1|))) (let ((l104 (= |next.v!2| |state.v!2|))) (let ((l105 (and l102 l103 l104))) (let ((l106 (and l2 l66 l67 l89 l93 l101 l105))) (let ((l107 (= |state.round| 1))) (let ((l108 (not |state.good_r!0|))) (let ((l109 (= |state.source| 3))) (let ((l110 (= |state.source| 2))) (let ((l111 (ite l110 |state.cx!1!0| |state.cx!0!0|))) (let ((l112 (ite l109 |state.cx!2!0| l111))) (let ((l113 (= |next.cy!0!0| l112))) (let ((l114 (or l108 l113))) (let ((l115 (= |next.cy!1!0| l112))) (let ((l116 (or l108 l115))) (let ((l117 (= |next.cy!2!0| l112))) (let ((l118 (or l108 l117))) (let ((l119 (not |state.good_r!1|))) (let ((l120 (ite l110 |state.cx!1!1| |state.cx!0!1|))) (let ((l121 (ite l109 |state.cx!2!1| l120))) (let ((l122 (= |next.cy!0!1| l121))) (let ((l123 (or l119 l122))) (let ((l124 (= |next.cy!1!1| l121))) (let ((l125 (or l119 l124))) (let ((l126 (= |next.cy!2!1| l121))) (let ((l127 (or l119 l126))) (let ((l128 (not |state.good_r!2|))) (let ((l129 (ite l110 |state.cx!1!2| |state.cx!0!2|))) (let ((l130 (ite l109 |state.cx!2!2| l129))) (let ((l131 (= |next.cy!0!2| l130))) (let ((l132 (or l128 l131))) (let ((l133 (= |next.cy!1!2| l130))) (let ((l134 (or l128 l133))) (let ((l135 (= |next.cy!2!2| l130))) (let ((l136 (or l128 l135))) (let ((l137 (not |state.good_r!3|))) (let ((l138 (ite l110 |state.cx!1!3| |state.cx!0!3|))) (let ((l139 (ite l109 |state.cx!2!3| l138))) (let ((l140 (= |next.cy!0!3| l139))) (let ((l141 (or l137 l140))) (let ((l142 (= |next.cy!1!3| l139))) (let ((l143 (or l137 l142))) (let ((l144 (= |next.cy!2!3| l139))) (let ((l145 (or l137 l144))) (let ((l146 (not |state.good_r!4|))) (let ((l147 (ite l110 |state.cx!1!4| |state.cx!0!4|))) (let ((l148 (ite l109 |state.cx!2!4| l147))) (let ((l149 (= |next.cy!0!4| l148))) (let ((l150 (or l146 l149))) (let ((l151 (= |next.cy!1!4| l148))) (let ((l152 (or l146 l151))) (let ((l153 (= |next.cy!2!4| l148))) (let ((l154 (or l146 l153))) (let ((l155 (not |state.good_r!5|))) (let ((l156 (ite l110 |state.cx!1!5| |state.cx!0!5|))) (let ((l157 (ite l109 |state.cx!2!5| l156))) (let ((l158 (= |next.cy!0!5| l157))) (let ((l159 (or l155 l158))) (let ((l160 (= |next.cy!1!5| l157))) (let ((l161 (or l155 l160))) (let ((l162 (= |next.cy!2!5| l157))) (let ((l163 (or l155 l162))) (let ((l164 (not |state.good_r!6|))) (let ((l165 (ite l110 |state.cx!1!6| |state.cx!0!6|))) (let ((l166 (ite l109 |state.cx!2!6| l165))) (let ((l167 (= |next.cy!0!6| l166))) (let ((l168 (or l164 l167))) (let ((l169 (= |next.cy!1!6| l166))) (let ((l170 (or l164 l169))) (let ((l171 (= |next.cy!2!6| l166))) (let ((l172 (or l164 l171))) (let ((l173 (and l114 l116 l118 l123 l125 l127 l132 l134 l136 l141 l143 l145 l150 l152 l154 l159 l161 l163 l168 l170 l172))) (let ((l174 (= |next.round| 2))) (let ((l175 (= |next.cx!0!0| |state.cx!0!0|))) (let ((l176 (= |next.cx!0!1| |state.cx!0!1|))) (let ((l177 (= |next.cx!0!2| |state.cx!0!2|))) (let ((l178 (= |next.cx!0!3| |state.cx!0!3|))) (let ((l179 (= |next.cx!0!4| |state.cx!0!4|))) (let ((l180 (= |next.cx!0!5| |state.cx!0!5|))) (let ((l181 (= |next.cx!0!6| |state.cx!0!6|))) (let ((l182 (= |next.cx!1!0| |state.cx!1!0|))) (let ((l183 (= |next.cx!1!1| |state.cx!1!1|))) (let ((l184 (= |next.cx!1!2| |state.cx!1!2|))) (let ((l185 (= |next.cx!1!3| |state.cx!1!3|))) (let ((l186 (= |next.cx!1!4| |state.cx!1!4|))) (let ((l187 (= |next.cx!1!5| |state.cx!1!5|))) (let ((l188 (= |next.cx!1!6| |state.cx!1!6|))) (let ((l189 (= |next.cx!2!0| |state.cx!2!0|))) (let ((l190 (= |next.cx!2!1| |state.cx!2!1|))) (let ((l191 (= |next.cx!2!2| |state.cx!2!2|))) (let ((l192 (= |next.cx!2!3| |state.cx!2!3|))) (let ((l193 (= |next.cx!2!4| |state.cx!2!4|))) (let ((l194 (= |next.cx!2!5| |state.cx!2!5|))) (let ((l195 (= |next.cx!2!6| |state.cx!2!6|))) (let ((l196 (and l175 l176 l177 l178 l179 l180 l181 l182 l183 l184 l185 l186 l187 l188 l189 l190 l191 l192 l193 l194 l195))) (let ((l197 (and l107 l173 l174 l196 l93 l101 l105))) (let ((l198 (= |state.round| 2))) (let ((l199 (= |state.cy!0!5| |state.cy!0!6|))) (let ((l200 (ite l199 2 0))) (let ((l201 (= l200 0))) (let ((l202 (= |state.cy!0!4| |state.cy!0!6|))) (let ((l203 (+ l200 1))) (let ((l204 (- l200 1))) (let ((l205 (ite l202 l203 l204))) (let ((l206 (ite l201 1 l205))) (let ((l207 (= l206 0))) (let ((l208 (ite l201 |state.cy!0!4| |state.cy!0!6|))) (let ((l209 (= |state.cy!0!3| l208))) (let ((l210 (+ l206 1))) (let ((l211 (- l206 1))) (let ((l212 (ite l209 l210 l211))) (let ((l213 (ite l207 1 l212))) (let ((l214 (= l213 0))) (let ((l215 (ite l207 |state.cy!0!3| l208))) (let ((l216 (= |state.cy!0!2| l215))) (let ((l217 (+ l213 1))) (let ((l218 (- l213 1))) (let ((l219 (ite l216 l217 l218))) (let ((l220 (ite l214 1 l219))) (let ((l221 (= l220 0))) (let ((l222 (ite l214 |state.cy!0!2| l215))) (let ((l223 (= |state.cy!0!1| l222))) (let ((l224 (+ l220 1))) (let ((l225 (- l220 1))) (let ((l226 (ite l223 l224 l225))) (let ((l227 (ite l221 1 l226))) (let ((l228 (= l227 0))) (let ((l229 (ite l221 |state.cy!0!1| l222))) (let ((l230 (ite l228 |state.cy!0!0| l229))) (let ((l231 (= |state.cy!0!6| l230))) (let ((l232 (ite l231 3 4))) (let ((l233 (= l232 0))) (let ((l234 (= |state.cy!0!5| l230))) (let ((l235 (- l232 1))) (let ((l236 (ite l234 l235 l232))) (let ((l237 (= l236 0))) (let ((l238 (= |state.cy!0!4| l230))) (let ((l239 (- l236 1))) (let ((l240 (ite l238 l239 l236))) (let ((l241 (= l240 0))) (let ((l242 (= |state.cy!0!3| l230))) (let ((l243 (- l240 1))) (let ((l244 (ite l242 l243 l240))) (let ((l245 (= l244 0))) (let ((l246 (= |state.cy!0!2| l230))) (let ((l247 (- l244 1))) (let ((l248 (ite l246 l247 l244))) (let ((l249 (= l248 0))) (let ((l250 (= |state.cy!0!1| l230))) (let ((l251 (- l248 1))) (let ((l252 (ite l250 l251 l248))) (let ((l253 (= l252 0))) (let ((l254 (= |state.cy!0!0| l230))) (let ((l255 (- l252 1))) (let ((l256 (ite l254 l255 l252))) (let ((l257 (= l256 0))) (let ((l258 (or l233 l237 l241 l245 l249 l253 l257))) (let ((l259 (ite l258 l230 0))) (let ((l260 (= |next.v!0| l259))) (let ((l261 (or l3 l260))) (let ((l262 (= |state.cy!1!5| |state.cy!1!6|))) (let ((l263 (ite l262 2 0))) (let ((l264 (= l263 0))) (let ((l265 (= |state.cy!1!4| |state.cy!1!6|))) (let ((l266 (+ l263 1))) (let ((l267 (- l263 1))) (let ((l268 (ite l265 l266 l267))) (let ((l269 (ite l264 1 l268))) (let ((l270 (= l269 0))) (let ((l271 (ite l264 |state.cy!1!4| |state.cy!1!6|))) (let ((l272 (= |state.cy!1!3| l271))) (let ((l273 (+ l269 1))) (let ((l274 (- l269 1))) (let ((l275 (ite l272 l273 l274))) (let ((l276 (ite l270 1 l275))) (let ((l277 (= l276 0))) (let ((l278 (ite l270 |state.cy!1!3| l271))) (let ((l279 (= |state.cy!1!2| l278))) (let ((l280 (+ l276 1))) (let ((l281 (- l276 1))) (let ((l282 (ite l279 l280 l281))) (let ((l283 (ite l277 1 l282))) (let ((l284 (= l283 0))) (let ((l285 (ite l277 |state.cy!1!2| l278))) (let ((l286 (= |state.cy!1!1| l285))) (let ((l287 (+ l283 1))) (let ((l288 (- l283 1))) (let ((l289 (ite l286 l287 l288))) (let ((l290 (ite l284 1 l289))) (let ((l291 (= l290 0))) (let ((l292 (ite l284 |state.cy!1!1| l285))) (let ((l293 (ite l291 |state.cy!1!0| l292))) (let ((l294 (= |state.cy!1!6| l293))) (let ((l295 (ite l294 3 4))) (let ((l296 (= l295 0))) (let ((l297 (= |state.cy!1!5| l293))) (let ((l298 (- l295 1))) (let ((l299 (ite l297 l298 l295))) (let ((l300 (= l299 0))) (let ((l301 (= |state.cy!1!4| l293))) (let ((l302 (- l299 1))) (let ((l303 (ite l301 l302 l299))) (let ((l304 (= l303 0))) (let ((l305 (= |state.cy!1!3| l293))) (let ((l306 (- l303 1))) (let ((l307 (ite l305 l306 l303))) (let ((l308 (= l307 0))) (let ((l309 (= |state.cy!1!2| l293))) (let ((l310 (- l307 1))) (let ((l311 (ite l309 l310 l307))) (let ((l312 (= l311 0))) (let ((l313 (= |state.cy!1!1| l293))) (let ((l314 (- l311 1))) (let ((l315 (ite l313 l314 l311))) (let ((l316 (= l315 0))) (let ((l317 (= |state.cy!1!0| l293))) (let ((l318 (- l315 1))) (let ((l319 (ite l317 l318 l315))) (let ((l320 (= l319 0))) (let ((l321 (or l296 l300 l304 l308 l312 l316 l320))) (let ((l322 (ite l321 l293 0))) (let ((l323 (= |next.v!1| l322))) (let ((l324 (or l15 l323))) (let ((l325 (= |state.cy!2!5| |state.cy!2!6|))) (let ((l326 (ite l325 2 0))) (let ((l327 (= l326 0))) (let ((l328 (= |state.cy!2!4| |state.cy!2!6|))) (let ((l329 (+ l326 1))) (let ((l330 (- l326 1))) (let ((l331 (ite l328 l329 l330))) (let ((l332 (ite l327 1 l331))) (let ((l333 (= l332 0))) (let ((l334 (ite l327 |state.cy!2!4| |state.cy!2!6|))) (let ((l335 (= |state.cy!2!3| l334))) (let ((l336 (+ l332 1))) (let ((l337 (- l332 1))) (let ((l338 (ite l335 l336 l337))) (let ((l339 (ite l333 1 l338))) (let ((l340 (= l339 0))) (let ((l341 (ite l333 |state.cy!2!3| l334))) (let ((l342 (= |state.cy!2!2| l341))) (let ((l343 (+ l339 1))) (let ((l344 (- l339 1))) (let ((l345 (ite l342 l343 l344))) (let ((l346 (ite l340 1 l345))) (let ((l347 (= l346 0))) (let ((l348 (ite l340 |state.cy!2!2| l341))) (let ((l349 (= |state.cy!2!1| l348))) (let ((l350 (+ l346 1))) (let ((l351 (- l346 1))) (let ((l352 (ite l349 l350 l351))) (let ((l353 (ite l347 1 l352))) (let ((l354 (= l353 0))) (let ((l355 (ite l347 |state.cy!2!1| l348))) (let ((l356 (ite l354 |state.cy!2!0| l355))) (let ((l357 (= |state.cy!2!6| l356))) (let ((l358 (ite l357 3 4))) (let ((l359 (= l358 0))) (let ((l360 (= |state.cy!2!5| l356))) (let ((l361 (- l358 1))) (let ((l362 (ite l360 l361 l358))) (let ((l363 (= l362 0))) (let ((l364 (= |state.cy!2!4| l356))) (let ((l365 (- l362 1))) (let ((l366 (ite l364 l365 l362))) (let ((l367 (= l366 0))) (let ((l368 (= |state.cy!2!3| l356))) (let ((l369 (- l366 1))) (let ((l370 (ite l368 l369 l366))) (let ((l371 (= l370 0))) (let ((l372 (= |state.cy!2!2| l356))) (let ((l373 (- l370 1))) (let ((l374 (ite l372 l373 l370))) (let ((l375 (= l374 0))) (let ((l376 (= |state.cy!2!1| l356))) (let ((l377 (- l374 1))) (let ((l378 (ite l376 l377 l374))) (let ((l379 (= l378 0))) (let ((l380 (= |state.cy!2!0| l356))) (let ((l381 (- l378 1))) (let ((l382 (ite l380 l381 l378))) (let ((l383 (= l382 0))) (let ((l384 (or l359 l363 l367 l371 l375 l379 l383))) (let ((l385 (ite l384 l356 0))) (let ((l386 (= |next.v!2| l385))) (let ((l387 (or l27 l386))) (let ((l388 (and l261 l324 l387))) (let ((l389 (= |next.round| 3))) (let ((l390 (and l198 l388 l389 l196 l89 l93 l101))) (let ((l391 (= |state.round| 3))) (let ((l392 (= |next.round| |state.round|))) (let ((l393 (and l391 l196 l89 l93 l101 l392 l105))) (let ((l394 (or l106 l197 l390 l393))) (let ((l395 (and l0 l1 l394))) l395))))))))))))))))))))))))))))))))))))))))))))))))))))))))))))))))))))))))))))))))))))))))))))))))))))))))))))))))))))))))))))))))))))))))))))))))))))))))))))))))))))))))))))))))))))))))))))))))))))))))))))))))))))))))))))))))))))))))))))))))))))))))))))))))))))))))))))))))))))))))))))))))))))))))))))))))))))))))))))))))))))))))))))))))))))))))))))))))))))))))))))))))))))))))))))))))))))))))))))
        )
        (invariant next.cx!0!0 next.cx!0!1 next.cx!0!2 next.cx!0!3 next.cx!0!4 next.cx!0!5 next.cx!0!6 next.cx!1!0 next.cx!1!1 next.cx!1!2 next.cx!1!3 next.cx!1!4 next.cx!1!5 next.cx!1!6 next.cx!2!0 next.cx!2!1 next.cx!2!2 next.cx!2!3 next.cx!2!4 next.cx!2!5 next.cx!2!6 next.cy!0!0 next.cy!0!1 next.cy!0!2 next.cy!0!3 next.cy!0!4 next.cy!0!5 next.cy!0!6 next.cy!1!0 next.cy!1!1 next.cy!1!2 next.cy!1!3 next.cy!1!4 next.cy!1!5 next.cy!1!6 next.cy!2!0 next.cy!2!1 next.cy!2!2 next.cy!2!3 next.cy!2!4 next.cy!2!5 next.cy!2!6 next.good_p!0 next.good_p!1 next.good_p!2 next.good_r!0 next.good_r!1 next.good_r!2 next.good_r!3 next.good_r!4 next.good_r!5 next.good_r!6 next.v!0 next.v!1 next.v!2 next.round next.source next.val)
    )
  )
)

;; Property
(assert
  (forall ((state.cx!0!0 Real) (state.cx!0!1 Real) (state.cx!0!2 Real) (state.cx!0!3 Real) (state.cx!0!4 Real) (state.cx!0!5 Real) (state.cx!0!6 Real) (state.cx!1!0 Real) (state.cx!1!1 Real) (state.cx!1!2 Real) (state.cx!1!3 Real) (state.cx!1!4 Real) (state.cx!1!5 Real) (state.cx!1!6 Real) (state.cx!2!0 Real) (state.cx!2!1 Real) (state.cx!2!2 Real) (state.cx!2!3 Real) (state.cx!2!4 Real) (state.cx!2!5 Real) (state.cx!2!6 Real) (state.cy!0!0 Real) (state.cy!0!1 Real) (state.cy!0!2 Real) (state.cy!0!3 Real) (state.cy!0!4 Real) (state.cy!0!5 Real) (state.cy!0!6 Real) (state.cy!1!0 Real) (state.cy!1!1 Real) (state.cy!1!2 Real) (state.cy!1!3 Real) (state.cy!1!4 Real) (state.cy!1!5 Real) (state.cy!1!6 Real) (state.cy!2!0 Real) (state.cy!2!1 Real) (state.cy!2!2 Real) (state.cy!2!3 Real) (state.cy!2!4 Real) (state.cy!2!5 Real) (state.cy!2!6 Real) (state.good_p!0 Bool) (state.good_p!1 Bool) (state.good_p!2 Bool) (state.good_r!0 Bool) (state.good_r!1 Bool) (state.good_r!2 Bool) (state.good_r!3 Bool) (state.good_r!4 Bool) (state.good_r!5 Bool) (state.good_r!6 Bool) (state.v!0 Real) (state.v!1 Real) (state.v!2 Real) (state.round Real) (state.source Real) (state.val Real))
    (=> (invariant state.cx!0!0 state.cx!0!1 state.cx!0!2 state.cx!0!3 state.cx!0!4 state.cx!0!5 state.cx!0!6 state.cx!1!0 state.cx!1!1 state.cx!1!2 state.cx!1!3 state.cx!1!4 state.cx!1!5 state.cx!1!6 state.cx!2!0 state.cx!2!1 state.cx!2!2 state.cx!2!3 state.cx!2!4 state.cx!2!5 state.cx!2!6 state.cy!0!0 state.cy!0!1 state.cy!0!2 state.cy!0!3 state.cy!0!4 state.cy!0!5 state.cy!0!6 state.cy!1!0 state.cy!1!1 state.cy!1!2 state.cy!1!3 state.cy!1!4 state.cy!1!5 state.cy!1!6 state.cy!2!0 state.cy!2!1 state.cy!2!2 state.cy!2!3 state.cy!2!4 state.cy!2!5 state.cy!2!6 state.good_p!0 state.good_p!1 state.good_p!2 state.good_r!0 state.good_r!1 state.good_r!2 state.good_r!3 state.good_r!4 state.good_r!5 state.good_r!6 state.v!0 state.v!1 state.v!2 state.round state.source state.val)
        (let ((l0 (< |state.round| 3))) (let ((l1 (not |state.good_p!0|))) (let ((l2 (not |state.good_p!1|))) (let ((l3 (= |state.v!0| |state.v!1|))) (let ((l4 (or l2 l3))) (let ((l5 (not |state.good_p!2|))) (let ((l6 (= |state.v!0| |state.v!2|))) (let ((l7 (or l5 l6))) (let ((l8 (and l4 l7))) (let ((l9 (or l1 l8))) (let ((l10 (= |state.v!1| |state.v!0|))) (let ((l11 (or l1 l10))) (let ((l12 (= |state.v!1| |state.v!2|))) (let ((l13 (or l5 l12))) (let ((l14 (and l11 l13))) (let ((l15 (or l2 l14))) (let ((l16 (= |state.v!2| |state.v!0|))) (let ((l17 (or l1 l16))) (let ((l18 (= |state.v!2| |state.v!1|))) (let ((l19 (or l2 l18))) (let ((l20 (and l17 l19))) (let ((l21 (or l5 l20))) (let ((l22 (and l9 l15 l21))) (let ((l23 (or l0 l22))) l23))))))))))))))))))))))))
    )
  )
)

;; Check the property
(check-sat)
